c Reading file experiments/california_census/mmc_encoding/mmc_cegqs_1.dimacs
c Building 1-fold quantitative self-composition...
c ind 148  150  151  152  165  167  168  169  170  171  172  173  174  175  176  177  181  182 0
c previous ind: 530  531  534  535  538  539  542  543  546  547  550  551  554  555  558  559  562  563  566  567  570  571  574  575  578  579  580  583  584  587  588  589  592  593  596  597  600  601  603  604  605 0
c This is a CNF SAT formula in the DIMACS CNF format,
c produced with the bc2cnf translator by Tommi Junttila;
c see http://users.ics.aalto.fi/tjunttil/circuits/index.html
c phi_Gamma_det <-> 1
c phi_Gamma <-> 1
c phi_T_transitions <-> 1
c phi_T <-> 1
c phi_sim_leaves <-> 1
c phi_sim_transition <-> 1
c phi_sim <-> 1
c FORMULA <-> 1
c pi_0 <-> 2
c pi_Class_2 <-> 94
c phi_T_transitions_consistency <-> 95
c tau_0_3_Class_3 <-> 148
c tau_0_3_Class_2 <-> 150
c tau_0_3_Class_1 <-> 151
c tau_0_3_Class_0 <-> 152
c tau_0_2_Class_3 <-> 165
c tau_0_2_Class_2 <-> 167
c tau_0_2_Class_1 <-> 168
c tau_0_2_Class_0 <-> 169
c tau_0_1_Class_3 <-> 170
c tau_0_1_Class_2 <-> 171
c tau_0_1_Class_1 <-> 172
c tau_0_1_Class_0 <-> 173
c tau_0_0_Class_3 <-> 174
c tau_0_0_Class_2 <-> 175
c tau_0_0_Class_1 <-> 176
c tau_0_0_Class_0 <-> 177
c phi_T_feature_det <-> 178
c lam_0_median_income <-> 181
c lam_0_population <-> 182
c phi_Gamma_val <-> 528
c median_income_P1179 <-> 530
c population_P334500 <-> 531
c median_income_P358 <-> 534
c population_P2737900 <-> 535
c median_income_P791 <-> 538
c population_P2463400 <-> 539
c median_income_P1426 <-> 542
c population_P2916200 <-> 543
c median_income_P426 <-> 546
c population_P463400 <-> 547
c median_income_P416 <-> 550
c population_P588700 <-> 551
c median_income_P1230 <-> 554
c population_P2898100 <-> 555
c median_income_P288 <-> 558
c population_P404000 <-> 559
c median_income_P702 <-> 562
c population_P2138200 <-> 563
c median_income_P694 <-> 566
c population_P131700 <-> 567
c median_income_P531 <-> 570
c population_P2669100 <-> 571
c median_income_P970 <-> 574
c population_P2946500 <-> 575
c pi_Class_0 <-> 578
c Class_P0 <-> 578
c median_income_P579 <-> 579
c population_P2620900 <-> 580
c median_income_P1390 <-> 583
c population_P3126400 <-> 584
c pi_Class_3 <-> 587
c Class_P300 <-> 587
c median_income_P385 <-> 588
c population_P150000 <-> 589
c median_income_P69 <-> 592
c population_P686000 <-> 593
c median_income_P967 <-> 596
c population_P1884100 <-> 597
c median_income_P202 <-> 600
c population_P1617500 <-> 601
c pi_Class_1 <-> 603
c Class_P100 <-> 603
c median_income_P1160 <-> 604
c population_P964600 <-> 605
c ind 530 531 534 535 538 539 542 543 546 547 550 551 554 555 558 559 562 563 566 567 570 571 574 575 578 579 580 583 584 587 588 589 592 593 596 597 600 601 603 604 605 0
p cnf 607 1678
1 0
2 -3 0
2 -14 0
-2 14 3 0
2 0
-3 4 0
-3 59 0
3 -59 -4 0
-4 5 0
-4 181 0
4 -181 -5 0
5 -6 0
5 -78 0
-5 78 6 0
6 -7 0
6 -49 0
-6 49 7 0
7 -8 0
7 -51 0
-7 51 8 0
8 -9 0
8 -53 0
-8 53 9 0
9 -10 0
9 -67 0
-9 67 10 0
10 -11 0
10 -88 0
-10 88 11 0
11 -12 0
11 -92 0
-11 92 12 0
12 -13 0
12 -68 0
-12 68 13 0
13 -36 0
13 -55 0
-13 55 36 0
14 -15 0
14 -25 0
-14 25 15 0
-15 16 0
-15 70 0
15 -70 -16 0
-16 17 0
-16 181 0
16 -181 -17 0
17 -18 0
17 -47 0
-17 47 18 0
18 -19 0
18 -80 0
-18 80 19 0
19 -20 0
19 -82 0
-19 82 20 0
20 -21 0
20 -84 0
-20 84 21 0
21 -22 0
21 -86 0
-21 86 22 0
22 -23 0
22 -90 0
-22 90 23 0
23 -24 0
23 -93 0
-23 93 24 0
24 -35 0
24 -56 0
-24 56 35 0
25 -26 0
25 -37 0
-25 37 26 0
-26 27 0
-26 33 0
26 -33 -27 0
-27 28 0
-27 29 0
27 -29 -28 0
28 148 0
28 -587 0
-28 587 -148 0
-29 -150 0
-29 30 0
29 -30 150 0
-30 31 0
-30 32 0
30 -32 -31 0
31 151 0
31 -603 0
-31 603 -151 0
32 152 0
32 -578 0
-32 578 -152 0
-33 34 0
-33 182 0
33 -182 -34 0
34 -35 0
34 -36 0
-34 36 35 0
-35 596 0
-35 597 0
35 -597 -596 0
-36 600 0
-36 601 0
36 -601 -600 0
37 -38 0
37 -57 0
-37 57 38 0
-38 39 0
-38 45 0
38 -45 -39 0
-39 40 0
-39 41 0
39 -41 -40 0
40 165 0
40 -587 0
-40 587 -165 0
-41 -167 0
-41 42 0
41 -42 167 0
-42 43 0
-42 44 0
42 -44 -43 0
43 168 0
43 -603 0
-43 603 -168 0
44 169 0
44 -578 0
-44 578 -169 0
-45 46 0
-45 182 0
45 -182 -46 0
46 -47 0
46 -48 0
-46 48 47 0
-47 530 0
-47 531 0
47 -531 -530 0
48 -49 0
48 -50 0
-48 50 49 0
-49 546 0
-49 547 0
49 -547 -546 0
50 -51 0
50 -52 0
-50 52 51 0
-51 550 0
-51 551 0
51 -551 -550 0
52 -53 0
52 -54 0
-52 54 53 0
-53 558 0
-53 559 0
53 -559 -558 0
54 -55 0
54 -56 0
-54 56 55 0
-55 592 0
-55 593 0
55 -593 -592 0
-56 604 0
-56 605 0
56 -605 -604 0
57 -58 0
57 -69 0
-57 69 58 0
-58 59 0
-58 65 0
58 -65 -59 0
-59 60 0
-59 61 0
59 -61 -60 0
60 170 0
60 -587 0
-60 587 -170 0
-61 -171 0
-61 62 0
61 -62 171 0
-62 63 0
-62 64 0
62 -64 -63 0
63 172 0
63 -603 0
-63 603 -172 0
64 173 0
64 -578 0
-64 578 -173 0
-65 66 0
-65 182 0
65 -182 -66 0
66 -67 0
66 -68 0
-66 68 67 0
-67 566 0
-67 567 0
67 -567 -566 0
-68 588 0
-68 589 0
68 -589 -588 0
-69 70 0
-69 76 0
69 -76 -70 0
-70 71 0
-70 72 0
70 -72 -71 0
71 174 0
71 -587 0
-71 587 -174 0
-72 -175 0
-72 73 0
72 -73 175 0
-73 74 0
-73 75 0
73 -75 -74 0
74 176 0
74 -603 0
-74 603 -176 0
75 177 0
75 -578 0
-75 578 -177 0
-76 77 0
-76 182 0
76 -182 -77 0
77 -78 0
77 -79 0
-77 79 78 0
-78 534 0
-78 535 0
78 -535 -534 0
79 -80 0
79 -81 0
-79 81 80 0
-80 538 0
-80 539 0
80 -539 -538 0
81 -82 0
81 -83 0
-81 83 82 0
-82 542 0
-82 543 0
82 -543 -542 0
83 -84 0
83 -85 0
-83 85 84 0
-84 554 0
-84 555 0
84 -555 -554 0
85 -86 0
85 -87 0
-85 87 86 0
-86 562 0
-86 563 0
86 -563 -562 0
87 -88 0
87 -89 0
-87 89 88 0
-88 570 0
-88 571 0
88 -571 -570 0
89 -90 0
89 -91 0
-89 91 90 0
-90 574 0
-90 575 0
90 -575 -574 0
91 -92 0
91 -93 0
-91 93 92 0
-92 579 0
-92 580 0
92 -580 -579 0
-93 583 0
-93 584 0
93 -584 -583 0
-94 0
95 181 0
95 -96 0
-95 96 -181 0
95 0
-96 -148 0
-96 97 0
96 -97 148 0
-97 -150 0
-97 98 0
97 -98 150 0
-98 -151 0
-98 99 0
98 -99 151 0
-99 -152 0
-99 100 0
99 -100 152 0
-100 -165 0
-100 101 0
100 -101 165 0
-101 -167 0
-101 102 0
101 -102 167 0
-102 -168 0
-102 -169 0
102 169 168 0
103 181 0
103 -104 0
-103 104 -181 0
103 0
-104 105 0
-104 119 0
104 -119 -105 0
105 -106 0
105 -108 0
-105 108 106 0
-106 107 0
-106 170 0
106 -170 -107 0
-107 -171 0
-107 111 0
107 -111 171 0
108 -109 0
108 -112 0
-108 112 109 0
-109 110 0
-109 171 0
109 -171 -110 0
-110 -170 0
-110 111 0
110 -111 170 0
-111 -172 0
-111 -173 0
111 173 172 0
112 -113 0
112 -116 0
-112 116 113 0
-113 114 0
-113 172 0
113 -172 -114 0
-114 -170 0
-114 115 0
114 -115 170 0
-115 -171 0
-115 -173 0
115 173 171 0
-116 117 0
-116 173 0
116 -173 -117 0
-117 -170 0
-117 118 0
117 -118 170 0
-118 -171 0
-118 -172 0
118 172 171 0
119 -120 0
119 -122 0
-119 122 120 0
-120 121 0
-120 174 0
120 -174 -121 0
-121 -175 0
-121 125 0
121 -125 175 0
122 -123 0
122 -126 0
-122 126 123 0
-123 124 0
-123 175 0
123 -175 -124 0
-124 -174 0
-124 125 0
124 -125 174 0
-125 -176 0
-125 -177 0
125 177 176 0
126 -127 0
126 -130 0
-126 130 127 0
-127 128 0
-127 176 0
127 -176 -128 0
-128 -174 0
-128 129 0
128 -129 174 0
-129 -175 0
-129 -177 0
129 177 175 0
-130 131 0
-130 177 0
130 -177 -131 0
-131 -174 0
-131 132 0
131 -132 174 0
-132 -175 0
-132 -176 0
132 176 175 0
133 182 0
133 -134 0
-133 134 -182 0
133 0
-134 135 0
-134 153 0
134 -153 -135 0
135 -136 0
135 -138 0
-135 138 136 0
-136 137 0
-136 148 0
136 -148 -137 0
-137 -150 0
-137 141 0
137 -141 150 0
138 -139 0
138 -142 0
-138 142 139 0
-139 140 0
-139 150 0
139 -150 -140 0
-140 -148 0
-140 141 0
140 -141 148 0
-141 -151 0
-141 -152 0
141 152 151 0
142 -143 0
142 -146 0
-142 146 143 0
-143 144 0
-143 151 0
143 -151 -144 0
-144 -148 0
-144 145 0
144 -145 148 0
-145 -150 0
-145 -152 0
145 152 150 0
-146 147 0
-146 152 0
146 -152 -147 0
-147 -148 0
-147 149 0
147 -149 148 0
-149 -150 0
-149 -151 0
149 151 150 0
-153 104 0
-153 154 0
153 -154 -104 0
154 -155 0
154 -156 0
-154 156 155 0
-155 101 0
-155 165 0
155 -165 -101 0
156 -157 0
156 -159 0
-156 159 157 0
-157 158 0
-157 167 0
157 -167 -158 0
-158 -165 0
-158 102 0
158 -102 165 0
159 -160 0
159 -163 0
-159 163 160 0
-160 161 0
-160 168 0
160 -168 -161 0
-161 -165 0
-161 162 0
161 -162 165 0
-162 -167 0
-162 -169 0
162 169 167 0
-163 164 0
-163 169 0
163 -169 -164 0
-164 -165 0
-164 166 0
164 -166 165 0
-166 -167 0
-166 -168 0
166 168 167 0
178 -179 0
178 -180 0
-178 180 179 0
178 0
-179 -182 0
-179 181 0
179 -181 182 0
-180 -181 0
-180 182 0
180 -182 181 0
183 587 0
183 578 0
-183 -578 -587 0
183 0
184 603 0
184 -185 0
-184 185 -603 0
184 0
-185 -587 0
-185 -578 0
185 578 587 0
186 534 0
186 530 0
-186 -530 -534 0
186 0
187 538 0
187 -188 0
-187 188 -538 0
187 0
-188 -534 0
-188 -530 0
188 530 534 0
189 542 0
189 -190 0
-189 190 -542 0
189 0
-190 -530 0
-190 191 0
190 -191 530 0
-191 -534 0
-191 -538 0
191 538 534 0
192 546 0
192 -193 0
-192 193 -546 0
192 0
-193 -530 0
-193 194 0
193 -194 530 0
-194 -534 0
-194 195 0
194 -195 534 0
-195 -538 0
-195 -542 0
195 542 538 0
196 550 0
196 -197 0
-196 197 -550 0
196 0
-197 -530 0
-197 198 0
197 -198 530 0
-198 -534 0
-198 199 0
198 -199 534 0
-199 -538 0
-199 200 0
199 -200 538 0
-200 -542 0
-200 -546 0
200 546 542 0
201 554 0
201 -202 0
-201 202 -554 0
201 0
-202 -530 0
-202 203 0
202 -203 530 0
-203 -534 0
-203 204 0
203 -204 534 0
-204 -538 0
-204 205 0
204 -205 538 0
-205 -542 0
-205 206 0
205 -206 542 0
-206 -546 0
-206 -550 0
206 550 546 0
207 558 0
207 -208 0
-207 208 -558 0
207 0
-208 -530 0
-208 209 0
208 -209 530 0
-209 -534 0
-209 210 0
209 -210 534 0
-210 -538 0
-210 211 0
210 -211 538 0
-211 -542 0
-211 212 0
211 -212 542 0
-212 -546 0
-212 213 0
212 -213 546 0
-213 -550 0
-213 -554 0
213 554 550 0
214 562 0
214 -215 0
-214 215 -562 0
214 0
-215 -530 0
-215 216 0
215 -216 530 0
-216 -534 0
-216 217 0
216 -217 534 0
-217 -538 0
-217 218 0
217 -218 538 0
-218 -542 0
-218 219 0
218 -219 542 0
-219 -546 0
-219 220 0
219 -220 546 0
-220 -550 0
-220 221 0
220 -221 550 0
-221 -554 0
-221 -558 0
221 558 554 0
222 566 0
222 -223 0
-222 223 -566 0
222 0
-223 -530 0
-223 224 0
223 -224 530 0
-224 -534 0
-224 225 0
224 -225 534 0
-225 -538 0
-225 226 0
225 -226 538 0
-226 -542 0
-226 227 0
226 -227 542 0
-227 -546 0
-227 228 0
227 -228 546 0
-228 -550 0
-228 229 0
228 -229 550 0
-229 -554 0
-229 230 0
229 -230 554 0
-230 -558 0
-230 -562 0
230 562 558 0
231 570 0
231 -232 0
-231 232 -570 0
231 0
-232 -530 0
-232 233 0
232 -233 530 0
-233 -534 0
-233 234 0
233 -234 534 0
-234 -538 0
-234 235 0
234 -235 538 0
-235 -542 0
-235 236 0
235 -236 542 0
-236 -546 0
-236 237 0
236 -237 546 0
-237 -550 0
-237 238 0
237 -238 550 0
-238 -554 0
-238 239 0
238 -239 554 0
-239 -558 0
-239 240 0
239 -240 558 0
-240 -562 0
-240 -566 0
240 566 562 0
241 574 0
241 -242 0
-241 242 -574 0
241 0
-242 -530 0
-242 243 0
242 -243 530 0
-243 -534 0
-243 244 0
243 -244 534 0
-244 -538 0
-244 245 0
244 -245 538 0
-245 -542 0
-245 246 0
245 -246 542 0
-246 -546 0
-246 247 0
246 -247 546 0
-247 -550 0
-247 248 0
247 -248 550 0
-248 -554 0
-248 249 0
248 -249 554 0
-249 -558 0
-249 250 0
249 -250 558 0
-250 -562 0
-250 251 0
250 -251 562 0
-251 -566 0
-251 -570 0
251 570 566 0
252 579 0
252 -253 0
-252 253 -579 0
252 0
-253 -530 0
-253 254 0
253 -254 530 0
-254 -534 0
-254 255 0
254 -255 534 0
-255 -538 0
-255 256 0
255 -256 538 0
-256 -542 0
-256 257 0
256 -257 542 0
-257 -546 0
-257 258 0
257 -258 546 0
-258 -550 0
-258 259 0
258 -259 550 0
-259 -554 0
-259 260 0
259 -260 554 0
-260 -558 0
-260 261 0
260 -261 558 0
-261 -562 0
-261 262 0
261 -262 562 0
-262 -566 0
-262 263 0
262 -263 566 0
-263 -570 0
-263 -574 0
263 574 570 0
264 583 0
264 -265 0
-264 265 -583 0
264 0
-265 -530 0
-265 266 0
265 -266 530 0
-266 -534 0
-266 267 0
266 -267 534 0
-267 -538 0
-267 268 0
267 -268 538 0
-268 -542 0
-268 269 0
268 -269 542 0
-269 -546 0
-269 270 0
269 -270 546 0
-270 -550 0
-270 271 0
270 -271 550 0
-271 -554 0
-271 272 0
271 -272 554 0
-272 -558 0
-272 273 0
272 -273 558 0
-273 -562 0
-273 274 0
273 -274 562 0
-274 -566 0
-274 275 0
274 -275 566 0
-275 -570 0
-275 276 0
275 -276 570 0
-276 -574 0
-276 -579 0
276 579 574 0
277 588 0
277 -278 0
-277 278 -588 0
277 0
-278 -530 0
-278 279 0
278 -279 530 0
-279 -534 0
-279 280 0
279 -280 534 0
-280 -538 0
-280 281 0
280 -281 538 0
-281 -542 0
-281 282 0
281 -282 542 0
-282 -546 0
-282 283 0
282 -283 546 0
-283 -550 0
-283 284 0
283 -284 550 0
-284 -554 0
-284 285 0
284 -285 554 0
-285 -558 0
-285 286 0
285 -286 558 0
-286 -562 0
-286 287 0
286 -287 562 0
-287 -566 0
-287 288 0
287 -288 566 0
-288 -570 0
-288 289 0
288 -289 570 0
-289 -574 0
-289 290 0
289 -290 574 0
-290 -579 0
-290 -583 0
290 583 579 0
291 592 0
291 -292 0
-291 292 -592 0
291 0
-292 -530 0
-292 293 0
292 -293 530 0
-293 -534 0
-293 294 0
293 -294 534 0
-294 -538 0
-294 295 0
294 -295 538 0
-295 -542 0
-295 296 0
295 -296 542 0
-296 -546 0
-296 297 0
296 -297 546 0
-297 -550 0
-297 298 0
297 -298 550 0
-298 -554 0
-298 299 0
298 -299 554 0
-299 -558 0
-299 300 0
299 -300 558 0
-300 -562 0
-300 301 0
300 -301 562 0
-301 -566 0
-301 302 0
301 -302 566 0
-302 -570 0
-302 303 0
302 -303 570 0
-303 -574 0
-303 304 0
303 -304 574 0
-304 -579 0
-304 305 0
304 -305 579 0
-305 -583 0
-305 -588 0
305 588 583 0
306 596 0
306 -307 0
-306 307 -596 0
306 0
-307 -530 0
-307 308 0
307 -308 530 0
-308 -534 0
-308 309 0
308 -309 534 0
-309 -538 0
-309 310 0
309 -310 538 0
-310 -542 0
-310 311 0
310 -311 542 0
-311 -546 0
-311 312 0
311 -312 546 0
-312 -550 0
-312 313 0
312 -313 550 0
-313 -554 0
-313 314 0
313 -314 554 0
-314 -558 0
-314 315 0
314 -315 558 0
-315 -562 0
-315 316 0
315 -316 562 0
-316 -566 0
-316 317 0
316 -317 566 0
-317 -570 0
-317 318 0
317 -318 570 0
-318 -574 0
-318 319 0
318 -319 574 0
-319 -579 0
-319 320 0
319 -320 579 0
-320 -583 0
-320 321 0
320 -321 583 0
-321 -588 0
-321 -592 0
321 592 588 0
322 600 0
322 -323 0
-322 323 -600 0
322 0
-323 -530 0
-323 324 0
323 -324 530 0
-324 -534 0
-324 325 0
324 -325 534 0
-325 -538 0
-325 326 0
325 -326 538 0
-326 -542 0
-326 327 0
326 -327 542 0
-327 -546 0
-327 328 0
327 -328 546 0
-328 -550 0
-328 329 0
328 -329 550 0
-329 -554 0
-329 330 0
329 -330 554 0
-330 -558 0
-330 331 0
330 -331 558 0
-331 -562 0
-331 332 0
331 -332 562 0
-332 -566 0
-332 333 0
332 -333 566 0
-333 -570 0
-333 334 0
333 -334 570 0
-334 -574 0
-334 335 0
334 -335 574 0
-335 -579 0
-335 336 0
335 -336 579 0
-336 -583 0
-336 337 0
336 -337 583 0
-337 -588 0
-337 338 0
337 -338 588 0
-338 -592 0
-338 -596 0
338 596 592 0
339 604 0
339 -340 0
-339 340 -604 0
339 0
-340 -530 0
-340 341 0
340 -341 530 0
-341 -534 0
-341 342 0
341 -342 534 0
-342 -538 0
-342 343 0
342 -343 538 0
-343 -542 0
-343 344 0
343 -344 542 0
-344 -546 0
-344 345 0
344 -345 546 0
-345 -550 0
-345 346 0
345 -346 550 0
-346 -554 0
-346 347 0
346 -347 554 0
-347 -558 0
-347 348 0
347 -348 558 0
-348 -562 0
-348 349 0
348 -349 562 0
-349 -566 0
-349 350 0
349 -350 566 0
-350 -570 0
-350 351 0
350 -351 570 0
-351 -574 0
-351 352 0
351 -352 574 0
-352 -579 0
-352 353 0
352 -353 579 0
-353 -583 0
-353 354 0
353 -354 583 0
-354 -588 0
-354 355 0
354 -355 588 0
-355 -592 0
-355 356 0
355 -356 592 0
-356 -596 0
-356 -600 0
356 600 596 0
357 535 0
357 531 0
-357 -531 -535 0
357 0
358 539 0
358 -359 0
-358 359 -539 0
358 0
-359 -535 0
-359 -531 0
359 531 535 0
360 543 0
360 -361 0
-360 361 -543 0
360 0
-361 -531 0
-361 362 0
361 -362 531 0
-362 -535 0
-362 -539 0
362 539 535 0
363 547 0
363 -364 0
-363 364 -547 0
363 0
-364 -531 0
-364 365 0
364 -365 531 0
-365 -535 0
-365 366 0
365 -366 535 0
-366 -539 0
-366 -543 0
366 543 539 0
367 551 0
367 -368 0
-367 368 -551 0
367 0
-368 -531 0
-368 369 0
368 -369 531 0
-369 -535 0
-369 370 0
369 -370 535 0
-370 -539 0
-370 371 0
370 -371 539 0
-371 -543 0
-371 -547 0
371 547 543 0
372 555 0
372 -373 0
-372 373 -555 0
372 0
-373 -531 0
-373 374 0
373 -374 531 0
-374 -535 0
-374 375 0
374 -375 535 0
-375 -539 0
-375 376 0
375 -376 539 0
-376 -543 0
-376 377 0
376 -377 543 0
-377 -547 0
-377 -551 0
377 551 547 0
378 559 0
378 -379 0
-378 379 -559 0
378 0
-379 -531 0
-379 380 0
379 -380 531 0
-380 -535 0
-380 381 0
380 -381 535 0
-381 -539 0
-381 382 0
381 -382 539 0
-382 -543 0
-382 383 0
382 -383 543 0
-383 -547 0
-383 384 0
383 -384 547 0
-384 -551 0
-384 -555 0
384 555 551 0
385 563 0
385 -386 0
-385 386 -563 0
385 0
-386 -531 0
-386 387 0
386 -387 531 0
-387 -535 0
-387 388 0
387 -388 535 0
-388 -539 0
-388 389 0
388 -389 539 0
-389 -543 0
-389 390 0
389 -390 543 0
-390 -547 0
-390 391 0
390 -391 547 0
-391 -551 0
-391 392 0
391 -392 551 0
-392 -555 0
-392 -559 0
392 559 555 0
393 567 0
393 -394 0
-393 394 -567 0
393 0
-394 -531 0
-394 395 0
394 -395 531 0
-395 -535 0
-395 396 0
395 -396 535 0
-396 -539 0
-396 397 0
396 -397 539 0
-397 -543 0
-397 398 0
397 -398 543 0
-398 -547 0
-398 399 0
398 -399 547 0
-399 -551 0
-399 400 0
399 -400 551 0
-400 -555 0
-400 401 0
400 -401 555 0
-401 -559 0
-401 -563 0
401 563 559 0
402 571 0
402 -403 0
-402 403 -571 0
402 0
-403 -531 0
-403 404 0
403 -404 531 0
-404 -535 0
-404 405 0
404 -405 535 0
-405 -539 0
-405 406 0
405 -406 539 0
-406 -543 0
-406 407 0
406 -407 543 0
-407 -547 0
-407 408 0
407 -408 547 0
-408 -551 0
-408 409 0
408 -409 551 0
-409 -555 0
-409 410 0
409 -410 555 0
-410 -559 0
-410 411 0
410 -411 559 0
-411 -563 0
-411 -567 0
411 567 563 0
412 575 0
412 -413 0
-412 413 -575 0
412 0
-413 -531 0
-413 414 0
413 -414 531 0
-414 -535 0
-414 415 0
414 -415 535 0
-415 -539 0
-415 416 0
415 -416 539 0
-416 -543 0
-416 417 0
416 -417 543 0
-417 -547 0
-417 418 0
417 -418 547 0
-418 -551 0
-418 419 0
418 -419 551 0
-419 -555 0
-419 420 0
419 -420 555 0
-420 -559 0
-420 421 0
420 -421 559 0
-421 -563 0
-421 422 0
421 -422 563 0
-422 -567 0
-422 -571 0
422 571 567 0
423 580 0
423 -424 0
-423 424 -580 0
423 0
-424 -531 0
-424 425 0
424 -425 531 0
-425 -535 0
-425 426 0
425 -426 535 0
-426 -539 0
-426 427 0
426 -427 539 0
-427 -543 0
-427 428 0
427 -428 543 0
-428 -547 0
-428 429 0
428 -429 547 0
-429 -551 0
-429 430 0
429 -430 551 0
-430 -555 0
-430 431 0
430 -431 555 0
-431 -559 0
-431 432 0
431 -432 559 0
-432 -563 0
-432 433 0
432 -433 563 0
-433 -567 0
-433 434 0
433 -434 567 0
-434 -571 0
-434 -575 0
434 575 571 0
435 584 0
435 -436 0
-435 436 -584 0
435 0
-436 -531 0
-436 437 0
436 -437 531 0
-437 -535 0
-437 438 0
437 -438 535 0
-438 -539 0
-438 439 0
438 -439 539 0
-439 -543 0
-439 440 0
439 -440 543 0
-440 -547 0
-440 441 0
440 -441 547 0
-441 -551 0
-441 442 0
441 -442 551 0
-442 -555 0
-442 443 0
442 -443 555 0
-443 -559 0
-443 444 0
443 -444 559 0
-444 -563 0
-444 445 0
444 -445 563 0
-445 -567 0
-445 446 0
445 -446 567 0
-446 -571 0
-446 447 0
446 -447 571 0
-447 -575 0
-447 -580 0
447 580 575 0
448 589 0
448 -449 0
-448 449 -589 0
448 0
-449 -531 0
-449 450 0
449 -450 531 0
-450 -535 0
-450 451 0
450 -451 535 0
-451 -539 0
-451 452 0
451 -452 539 0
-452 -543 0
-452 453 0
452 -453 543 0
-453 -547 0
-453 454 0
453 -454 547 0
-454 -551 0
-454 455 0
454 -455 551 0
-455 -555 0
-455 456 0
455 -456 555 0
-456 -559 0
-456 457 0
456 -457 559 0
-457 -563 0
-457 458 0
457 -458 563 0
-458 -567 0
-458 459 0
458 -459 567 0
-459 -571 0
-459 460 0
459 -460 571 0
-460 -575 0
-460 461 0
460 -461 575 0
-461 -580 0
-461 -584 0
461 584 580 0
462 593 0
462 -463 0
-462 463 -593 0
462 0
-463 -531 0
-463 464 0
463 -464 531 0
-464 -535 0
-464 465 0
464 -465 535 0
-465 -539 0
-465 466 0
465 -466 539 0
-466 -543 0
-466 467 0
466 -467 543 0
-467 -547 0
-467 468 0
467 -468 547 0
-468 -551 0
-468 469 0
468 -469 551 0
-469 -555 0
-469 470 0
469 -470 555 0
-470 -559 0
-470 471 0
470 -471 559 0
-471 -563 0
-471 472 0
471 -472 563 0
-472 -567 0
-472 473 0
472 -473 567 0
-473 -571 0
-473 474 0
473 -474 571 0
-474 -575 0
-474 475 0
474 -475 575 0
-475 -580 0
-475 476 0
475 -476 580 0
-476 -584 0
-476 -589 0
476 589 584 0
477 597 0
477 -478 0
-477 478 -597 0
477 0
-478 -531 0
-478 479 0
478 -479 531 0
-479 -535 0
-479 480 0
479 -480 535 0
-480 -539 0
-480 481 0
480 -481 539 0
-481 -543 0
-481 482 0
481 -482 543 0
-482 -547 0
-482 483 0
482 -483 547 0
-483 -551 0
-483 484 0
483 -484 551 0
-484 -555 0
-484 485 0
484 -485 555 0
-485 -559 0
-485 486 0
485 -486 559 0
-486 -563 0
-486 487 0
486 -487 563 0
-487 -567 0
-487 488 0
487 -488 567 0
-488 -571 0
-488 489 0
488 -489 571 0
-489 -575 0
-489 490 0
489 -490 575 0
-490 -580 0
-490 491 0
490 -491 580 0
-491 -584 0
-491 492 0
491 -492 584 0
-492 -589 0
-492 -593 0
492 593 589 0
493 601 0
493 -494 0
-493 494 -601 0
493 0
-494 -531 0
-494 495 0
494 -495 531 0
-495 -535 0
-495 496 0
495 -496 535 0
-496 -539 0
-496 497 0
496 -497 539 0
-497 -543 0
-497 498 0
497 -498 543 0
-498 -547 0
-498 499 0
498 -499 547 0
-499 -551 0
-499 500 0
499 -500 551 0
-500 -555 0
-500 501 0
500 -501 555 0
-501 -559 0
-501 502 0
501 -502 559 0
-502 -563 0
-502 503 0
502 -503 563 0
-503 -567 0
-503 504 0
503 -504 567 0
-504 -571 0
-504 505 0
504 -505 571 0
-505 -575 0
-505 506 0
505 -506 575 0
-506 -580 0
-506 507 0
506 -507 580 0
-507 -584 0
-507 508 0
507 -508 584 0
-508 -589 0
-508 509 0
508 -509 589 0
-509 -593 0
-509 -597 0
509 597 593 0
510 605 0
510 -511 0
-510 511 -605 0
510 0
-511 -531 0
-511 512 0
511 -512 531 0
-512 -535 0
-512 513 0
512 -513 535 0
-513 -539 0
-513 514 0
513 -514 539 0
-514 -543 0
-514 515 0
514 -515 543 0
-515 -547 0
-515 516 0
515 -516 547 0
-516 -551 0
-516 517 0
516 -517 551 0
-517 -555 0
-517 518 0
517 -518 555 0
-518 -559 0
-518 519 0
518 -519 559 0
-519 -563 0
-519 520 0
519 -520 563 0
-520 -567 0
-520 521 0
520 -521 567 0
-521 -571 0
-521 522 0
521 -522 571 0
-522 -575 0
-522 523 0
522 -523 575 0
-523 -580 0
-523 524 0
523 -524 580 0
-524 -584 0
-524 525 0
524 -525 584 0
-525 -589 0
-525 526 0
525 -526 589 0
-526 -593 0
-526 527 0
526 -527 593 0
-527 -597 0
-527 -601 0
527 601 597 0
528 -529 0
528 -532 0
-528 532 529 0
528 0
-529 47 0
-529 587 0
529 -587 -47 0
532 -533 0
532 -536 0
-532 536 533 0
-533 78 0
-533 603 0
533 -603 -78 0
536 -537 0
536 -540 0
-536 540 537 0
-537 80 0
-537 603 0
537 -603 -80 0
540 -541 0
540 -544 0
-540 544 541 0
-541 82 0
-541 603 0
541 -603 -82 0
544 -545 0
544 -548 0
-544 548 545 0
-545 49 0
-545 587 0
545 -587 -49 0
548 -549 0
548 -552 0
-548 552 549 0
-549 51 0
-549 578 0
549 -578 -51 0
552 -553 0
552 -556 0
-552 556 553 0
-553 84 0
-553 603 0
553 -603 -84 0
556 -557 0
556 -560 0
-556 560 557 0
-557 53 0
-557 587 0
557 -587 -53 0
560 -561 0
560 -564 0
-560 564 561 0
-561 86 0
-561 603 0
561 -603 -86 0
564 -565 0
564 -568 0
-564 568 565 0
-565 67 0
-565 587 0
565 -587 -67 0
568 -569 0
568 -572 0
-568 572 569 0
-569 88 0
-569 578 0
569 -578 -88 0
572 -573 0
572 -576 0
-572 576 573 0
-573 90 0
-573 578 0
573 -578 -90 0
576 -577 0
576 -581 0
-576 581 577 0
-577 92 0
-577 578 0
577 -578 -92 0
581 -582 0
581 -585 0
-581 585 582 0
-582 93 0
-582 603 0
582 -603 -93 0
585 -586 0
585 -590 0
-585 590 586 0
-586 68 0
-586 587 0
586 -587 -68 0
590 -591 0
590 -594 0
-590 594 591 0
-591 55 0
-591 603 0
591 -603 -55 0
594 -595 0
594 -598 0
-594 598 595 0
-595 35 0
-595 603 0
595 -603 -35 0
598 -599 0
598 -602 0
-598 602 599 0
-599 36 0
-599 603 0
599 -603 -36 0
-602 56 0
-602 603 0
602 -603 -56 0
